sat-competition-2018/bijection/benchmarks/cms-scheel-sha3-bijection-w1-rt.cnf
c This is a CNF SAT formula in the DIMACS CNF format,
c produced with the bc2cnf translator by Tommi Junttila;
c see http://users.ics.aalto.fi/tjunttil/circuits/index.html
c cbijection <-> 1
c csurout <-> 4
c cinout <-> 5
c cinin <-> 31
c csurin <-> 32
c h2out24 <-> 58
c h2r0t24 <-> 58
c h2out23 <-> 59
c h2r0t23 <-> 59
c h2out22 <-> 60
c h2r0t22 <-> 60
c h2out21 <-> 61
c h2r0t21 <-> 61
c h2out20 <-> 62
c h2r0t20 <-> 62
c h2out19 <-> 63
c h2r0t19 <-> 63
c h2out18 <-> 64
c h2r0t18 <-> 64
c h2out17 <-> 65
c h2r0t17 <-> 65
c h2out16 <-> 66
c h2r0t16 <-> 66
c h2out15 <-> 67
c h2r0t15 <-> 67
c h2out14 <-> 68
c h2r0t14 <-> 68
c h2out13 <-> 69
c h2r0t13 <-> 69
c h2out12 <-> 70
c h2r0t12 <-> 70
c h2out11 <-> 71
c h2r0t11 <-> 71
c h2out10 <-> 72
c h2r0t10 <-> 72
c h2out9 <-> 73
c h2r0t9 <-> 73
c h2out8 <-> 74
c h2r0t8 <-> 74
c h2out7 <-> 75
c h2r0t7 <-> 75
c h2out6 <-> 76
c h2r0t6 <-> 76
c h2out5 <-> 77
c h2r0t5 <-> 77
c h2out4 <-> 78
c h2r0t4 <-> 78
c h2out3 <-> 80
c h2r0t3 <-> 80
c h2out2 <-> 82
c h2r0t2 <-> 82
c h2in23 <-> 86
c h2in18 <-> 87
c h2in13 <-> 89
c h2in8 <-> 91
c h2in3 <-> 92
c h2out1 <-> 93
c h2r0t1 <-> 93
c h2in22 <-> 97
c h2in17 <-> 98
c h2in12 <-> 100
c h2in7 <-> 102
c h2in2 <-> 103
c h2in20 <-> 106
c h2in15 <-> 107
c h2in10 <-> 109
c h2in5 <-> 111
c h2out0 <-> 112
c h2r0t0 <-> 112
c h2in21 <-> 116
c h2in16 <-> 117
c h2in11 <-> 119
c h2in6 <-> 121
c h2in1 <-> 122
c h2in24 <-> 125
c h2in19 <-> 126
c h2in14 <-> 128
c h2in9 <-> 130
c h2in4 <-> 131
c h2in0 <-> 132
c h1out24 <-> 133
c h1r0t24 <-> 133
c h1out23 <-> 134
c h1r0t23 <-> 134
c h1out22 <-> 135
c h1r0t22 <-> 135
c h1out21 <-> 136
c h1r0t21 <-> 136
c h1out20 <-> 137
c h1r0t20 <-> 137
c h1out19 <-> 138
c h1r0t19 <-> 138
c h1out18 <-> 139
c h1r0t18 <-> 139
c h1out17 <-> 140
c h1r0t17 <-> 140
c h1out16 <-> 141
c h1r0t16 <-> 141
c h1out15 <-> 142
c h1r0t15 <-> 142
c h1out14 <-> 143
c h1r0t14 <-> 143
c h1out13 <-> 144
c h1r0t13 <-> 144
c h1out12 <-> 145
c h1r0t12 <-> 145
c h1out11 <-> 146
c h1r0t11 <-> 146
c h1out10 <-> 147
c h1r0t10 <-> 147
c h1out9 <-> 148
c h1r0t9 <-> 148
c h1out8 <-> 149
c h1r0t8 <-> 149
c h1out7 <-> 150
c h1r0t7 <-> 150
c h1out6 <-> 151
c h1r0t6 <-> 151
c h1out5 <-> 152
c h1r0t5 <-> 152
c h1out4 <-> 153
c h1r0t4 <-> 153
c h1out3 <-> 155
c h1r0t3 <-> 155
c h1out2 <-> 157
c h1r0t2 <-> 157
c h1in23 <-> 161
c h1in18 <-> 162
c h1in13 <-> 164
c h1in8 <-> 166
c h1in3 <-> 167
c h1out1 <-> 168
c h1r0t1 <-> 168
c h1in22 <-> 172
c h1in17 <-> 173
c h1in12 <-> 175
c h1in7 <-> 177
c h1in2 <-> 178
c h1in20 <-> 181
c h1in15 <-> 182
c h1in10 <-> 184
c h1in5 <-> 186
c h1out0 <-> 187
c h1r0t0 <-> 187
c h1in21 <-> 191
c h1in16 <-> 192
c h1in11 <-> 194
c h1in6 <-> 196
c h1in1 <-> 197
c h1in24 <-> 200
c h1in19 <-> 201
c h1in14 <-> 203
c h1in9 <-> 205
c h1in4 <-> 206
c h1in0 <-> 207
p cnf 207 666
1 -2 0
1 -3 0
-1 3 2 0
1 0
-2 4 0
-2 32 0
2 -32 -4 0
-3 5 0
-3 31 0
3 -31 -5 0
4 5 0
-4 -5 0
-5 6 0
-5 7 0
-5 8 0
-5 9 0
-5 10 0
-5 11 0
-5 12 0
-5 13 0
-5 14 0
-5 15 0
-5 16 0
-5 17 0
-5 18 0
-5 19 0
-5 20 0
-5 21 0
-5 22 0
-5 23 0
-5 24 0
-5 25 0
-5 26 0
-5 27 0
-5 28 0
-5 29 0
-5 30 0
5 -30 -29 -28 -27 -26 -25 -24 -23 -22 -21 -20 -19 -18 -17 -16 -15 -14 -13 -12 -11 -10 -9 -8 -7 -6 0
6 133 58 0
6 -133 -58 0
-6 133 -58 0
-6 -133 58 0
7 134 59 0
7 -134 -59 0
-7 134 -59 0
-7 -134 59 0
8 135 60 0
8 -135 -60 0
-8 135 -60 0
-8 -135 60 0
9 136 61 0
9 -136 -61 0
-9 136 -61 0
-9 -136 61 0
10 137 62 0
10 -137 -62 0
-10 137 -62 0
-10 -137 62 0
11 138 63 0
11 -138 -63 0
-11 138 -63 0
-11 -138 63 0
12 139 64 0
12 -139 -64 0
-12 139 -64 0
-12 -139 64 0
13 140 65 0
13 -140 -65 0
-13 140 -65 0
-13 -140 65 0
14 141 66 0
14 -141 -66 0
-14 141 -66 0
-14 -141 66 0
15 142 67 0
15 -142 -67 0
-15 142 -67 0
-15 -142 67 0
16 143 68 0
16 -143 -68 0
-16 143 -68 0
-16 -143 68 0
17 144 69 0
17 -144 -69 0
-17 144 -69 0
-17 -144 69 0
18 145 70 0
18 -145 -70 0
-18 145 -70 0
-18 -145 70 0
19 146 71 0
19 -146 -71 0
-19 146 -71 0
-19 -146 71 0
20 147 72 0
20 -147 -72 0
-20 147 -72 0
-20 -147 72 0
21 148 73 0
21 -148 -73 0
-21 148 -73 0
-21 -148 73 0
22 149 74 0
22 -149 -74 0
-22 149 -74 0
-22 -149 74 0
23 150 75 0
23 -150 -75 0
-23 150 -75 0
-23 -150 75 0
24 151 76 0
24 -151 -76 0
-24 151 -76 0
-24 -151 76 0
25 152 77 0
25 -152 -77 0
-25 152 -77 0
-25 -152 77 0
26 153 78 0
26 -153 -78 0
-26 153 -78 0
-26 -153 78 0
27 155 80 0
27 -155 -80 0
-27 155 -80 0
-27 -155 80 0
28 157 82 0
28 -157 -82 0
-28 157 -82 0
-28 -157 82 0
29 168 93 0
29 -168 -93 0
-29 168 -93 0
-29 -168 93 0
30 187 112 0
30 -187 -112 0
-30 187 -112 0
-30 -187 112 0
31 32 0
-31 -32 0
-32 33 0
-32 34 0
-32 35 0
-32 36 0
-32 37 0
-32 38 0
-32 39 0
-32 40 0
-32 41 0
-32 42 0
-32 43 0
-32 44 0
-32 45 0
-32 46 0
-32 47 0
-32 48 0
-32 49 0
-32 50 0
-32 51 0
-32 52 0
-32 53 0
-32 54 0
-32 55 0
-32 56 0
-32 57 0
32 -57 -56 -55 -54 -53 -52 -51 -50 -49 -48 -47 -46 -45 -44 -43 -42 -41 -40 -39 -38 -37 -36 -35 -34 -33 0
33 200 125 0
33 -200 -125 0
-33 200 -125 0
-33 -200 125 0
34 161 86 0
34 -161 -86 0
-34 161 -86 0
-34 -161 86 0
35 172 97 0
35 -172 -97 0
-35 172 -97 0
-35 -172 97 0
36 191 116 0
36 -191 -116 0
-36 191 -116 0
-36 -191 116 0
37 181 106 0
37 -181 -106 0
-37 181 -106 0
-37 -181 106 0
38 201 126 0
38 -201 -126 0
-38 201 -126 0
-38 -201 126 0
39 162 87 0
39 -162 -87 0
-39 162 -87 0
-39 -162 87 0
40 173 98 0
40 -173 -98 0
-40 173 -98 0
-40 -173 98 0
41 192 117 0
41 -192 -117 0
-41 192 -117 0
-41 -192 117 0
42 182 107 0
42 -182 -107 0
-42 182 -107 0
-42 -182 107 0
43 203 128 0
43 -203 -128 0
-43 203 -128 0
-43 -203 128 0
44 164 89 0
44 -164 -89 0
-44 164 -89 0
-44 -164 89 0
45 175 100 0
45 -175 -100 0
-45 175 -100 0
-45 -175 100 0
46 194 119 0
46 -194 -119 0
-46 194 -119 0
-46 -194 119 0
47 184 109 0
47 -184 -109 0
-47 184 -109 0
-47 -184 109 0
48 205 130 0
48 -205 -130 0
-48 205 -130 0
-48 -205 130 0
49 166 91 0
49 -166 -91 0
-49 166 -91 0
-49 -166 91 0
50 177 102 0
50 -177 -102 0
-50 177 -102 0
-50 -177 102 0
51 196 121 0
51 -196 -121 0
-51 196 -121 0
-51 -196 121 0
52 186 111 0
52 -186 -111 0
-52 186 -111 0
-52 -186 111 0
53 206 131 0
53 -206 -131 0
-53 206 -131 0
-53 -206 131 0
54 167 92 0
54 -167 -92 0
-54 167 -92 0
-54 -167 92 0
55 178 103 0
55 -178 -103 0
-55 178 -103 0
-55 -178 103 0
56 197 122 0
56 -197 -122 0
-56 197 -122 0
-56 -197 122 0
57 207 132 0
57 -207 -132 0
-57 207 -132 0
-57 -207 132 0
58 125 -79 0
58 -125 79 0
-58 125 79 0
-58 -125 -79 0
59 86 -81 0
59 -86 81 0
-59 86 81 0
-59 -86 -81 0
60 97 -83 0
60 -97 83 0
-60 97 83 0
-60 -97 -83 0
61 116 -94 0
61 -116 94 0
-61 116 94 0
-61 -116 -94 0
62 113 -106 0
62 -113 106 0
-62 113 106 0
-62 -113 -106 0
63 126 -79 0
63 -126 79 0
-63 126 79 0
-63 -126 -79 0
64 87 -81 0
64 -87 81 0
-64 87 81 0
-64 -87 -81 0
65 98 -83 0
65 -98 83 0
-65 98 83 0
-65 -98 -83 0
66 117 -94 0
66 -117 94 0
-66 117 94 0
-66 -117 -94 0
67 113 -107 0
67 -113 107 0
-67 113 107 0
-67 -113 -107 0
68 128 -79 0
68 -128 79 0
-68 128 79 0
-68 -128 -79 0
69 89 -81 0
69 -89 81 0
-69 89 81 0
-69 -89 -81 0
70 100 -83 0
70 -100 83 0
-70 100 83 0
-70 -100 -83 0
71 119 -94 0
71 -119 94 0
-71 119 94 0
-71 -119 -94 0
72 113 -109 0
72 -113 109 0
-72 113 109 0
-72 -113 -109 0
73 130 -79 0
73 -130 79 0
-73 130 79 0
-73 -130 -79 0
74 91 -81 0
74 -91 81 0
-74 91 81 0
-74 -91 -81 0
75 102 -83 0
75 -102 83 0
-75 102 83 0
-75 -102 -83 0
76 121 -94 0
76 -121 94 0
-76 121 94 0
-76 -121 -94 0
77 113 -111 0
77 -113 111 0
-77 113 111 0
-77 -113 -111 0
78 131 -79 0
78 -131 79 0
-78 131 79 0
-78 -131 -79 0
79 104 -84 0
79 -104 84 0
-79 104 84 0
-79 -104 -84 0
80 92 -81 0
80 -92 81 0
-80 92 81 0
-80 -92 -81 0
81 123 -95 0
81 -123 95 0
-81 123 95 0
-81 -123 -95 0
82 103 -83 0
82 -103 83 0
-82 103 83 0
-82 -103 -83 0
83 114 -84 0
83 -114 84 0
-83 114 84 0
-83 -114 -84 0
84 88 -85 0
84 -88 85 0
-84 88 85 0
-84 -88 -85 0
85 87 -86 0
85 -87 86 0
-85 87 86 0
-85 -87 -86 0
88 90 -89 0
88 -90 89 0
-88 90 89 0
-88 -90 -89 0
90 92 -91 0
90 -92 91 0
-90 92 91 0
-90 -92 -91 0
93 122 -94 0
93 -122 94 0
-93 122 94 0
-93 -122 -94 0
94 104 -95 0
94 -104 95 0
-94 104 95 0
-94 -104 -95 0
95 99 -96 0
95 -99 96 0
-95 99 96 0
-95 -99 -96 0
96 98 -97 0
96 -98 97 0
-96 98 97 0
-96 -98 -97 0
99 101 -100 0
99 -101 100 0
-99 101 100 0
-99 -101 -100 0
101 103 -102 0
101 -103 102 0
-101 103 102 0
-101 -103 -102 0
104 108 -105 0
104 -108 105 0
-104 108 105 0
-104 -108 -105 0
105 107 -106 0
105 -107 106 0
-105 107 106 0
-105 -107 -106 0
108 110 -109 0
108 -110 109 0
-108 110 109 0
-108 -110 -109 0
110 132 -111 0
110 -132 111 0
-110 132 111 0
-110 -132 -111 0
112 132 -113 0
112 -132 113 0
-112 132 113 0
-112 -132 -113 0
113 123 -114 0
113 -123 114 0
-113 123 114 0
-113 -123 -114 0
114 118 -115 0
114 -118 115 0
-114 118 115 0
-114 -118 -115 0
115 117 -116 0
115 -117 116 0
-115 117 116 0
-115 -117 -116 0
118 120 -119 0
118 -120 119 0
-118 120 119 0
-118 -120 -119 0
120 122 -121 0
120 -122 121 0
-120 122 121 0
-120 -122 -121 0
123 127 -124 0
123 -127 124 0
-123 127 124 0
-123 -127 -124 0
124 126 -125 0
124 -126 125 0
-124 126 125 0
-124 -126 -125 0
127 129 -128 0
127 -129 128 0
-127 129 128 0
-127 -129 -128 0
129 131 -130 0
129 -131 130 0
-129 131 130 0
-129 -131 -130 0
133 200 -154 0
133 -200 154 0
-133 200 154 0
-133 -200 -154 0
134 161 -156 0
134 -161 156 0
-134 161 156 0
-134 -161 -156 0
135 172 -158 0
135 -172 158 0
-135 172 158 0
-135 -172 -158 0
136 191 -169 0
136 -191 169 0
-136 191 169 0
-136 -191 -169 0
137 188 -181 0
137 -188 181 0
-137 188 181 0
-137 -188 -181 0
138 201 -154 0
138 -201 154 0
-138 201 154 0
-138 -201 -154 0
139 162 -156 0
139 -162 156 0
-139 162 156 0
-139 -162 -156 0
140 173 -158 0
140 -173 158 0
-140 173 158 0
-140 -173 -158 0
141 192 -169 0
141 -192 169 0
-141 192 169 0
-141 -192 -169 0
142 188 -182 0
142 -188 182 0
-142 188 182 0
-142 -188 -182 0
143 203 -154 0
143 -203 154 0
-143 203 154 0
-143 -203 -154 0
144 164 -156 0
144 -164 156 0
-144 164 156 0
-144 -164 -156 0
145 175 -158 0
145 -175 158 0
-145 175 158 0
-145 -175 -158 0
146 194 -169 0
146 -194 169 0
-146 194 169 0
-146 -194 -169 0
147 188 -184 0
147 -188 184 0
-147 188 184 0
-147 -188 -184 0
148 205 -154 0
148 -205 154 0
-148 205 154 0
-148 -205 -154 0
149 166 -156 0
149 -166 156 0
-149 166 156 0
-149 -166 -156 0
150 177 -158 0
150 -177 158 0
-150 177 158 0
-150 -177 -158 0
151 196 -169 0
151 -196 169 0
-151 196 169 0
-151 -196 -169 0
152 188 -186 0
152 -188 186 0
-152 188 186 0
-152 -188 -186 0
153 206 -154 0
153 -206 154 0
-153 206 154 0
-153 -206 -154 0
154 179 -159 0
154 -179 159 0
-154 179 159 0
-154 -179 -159 0
155 167 -156 0
155 -167 156 0
-155 167 156 0
-155 -167 -156 0
156 198 -170 0
156 -198 170 0
-156 198 170 0
-156 -198 -170 0
157 178 -158 0
157 -178 158 0
-157 178 158 0
-157 -178 -158 0
158 189 -159 0
158 -189 159 0
-158 189 159 0
-158 -189 -159 0
159 163 -160 0
159 -163 160 0
-159 163 160 0
-159 -163 -160 0
160 162 -161 0
160 -162 161 0
-160 162 161 0
-160 -162 -161 0
163 165 -164 0
163 -165 164 0
-163 165 164 0
-163 -165 -164 0
165 167 -166 0
165 -167 166 0
-165 167 166 0
-165 -167 -166 0
168 197 -169 0
168 -197 169 0
-168 197 169 0
-168 -197 -169 0
169 179 -170 0
169 -179 170 0
-169 179 170 0
-169 -179 -170 0
170 174 -171 0
170 -174 171 0
-170 174 171 0
-170 -174 -171 0
171 173 -172 0
171 -173 172 0
-171 173 172 0
-171 -173 -172 0
174 176 -175 0
174 -176 175 0
-174 176 175 0
-174 -176 -175 0
176 178 -177 0
176 -178 177 0
-176 178 177 0
-176 -178 -177 0
179 183 -180 0
179 -183 180 0
-179 183 180 0
-179 -183 -180 0
180 182 -181 0
180 -182 181 0
-180 182 181 0
-180 -182 -181 0
183 185 -184 0
183 -185 184 0
-183 185 184 0
-183 -185 -184 0
185 207 -186 0
185 -207 186 0
-185 207 186 0
-185 -207 -186 0
187 207 -188 0
187 -207 188 0
-187 207 188 0
-187 -207 -188 0
188 198 -189 0
188 -198 189 0
-188 198 189 0
-188 -198 -189 0
189 193 -190 0
189 -193 190 0
-189 193 190 0
-189 -193 -190 0
190 192 -191 0
190 -192 191 0
-190 192 191 0
-190 -192 -191 0
193 195 -194 0
193 -195 194 0
-193 195 194 0
-193 -195 -194 0
195 197 -196 0
195 -197 196 0
-195 197 196 0
-195 -197 -196 0
198 202 -199 0
198 -202 199 0
-198 202 199 0
-198 -202 -199 0
199 201 -200 0
199 -201 200 0
-199 201 200 0
-199 -201 -200 0
202 204 -203 0
202 -204 203 0
-202 204 203 0
-202 -204 -203 0
204 206 -205 0
204 -206 205 0
-204 206 205 0
-204 -206 -205 0
